NAME : P113222.31786.tour
COMMENT : Length = 31786
COMMENT : Found by LKH-3 [Keld Helsgaun] Tue Dec 17 14:07:03 2024
TYPE : TOUR
DIMENSION : 140
TOUR_SECTION
1
46
42
39
52
56
60
59
40
53
55
41
58
51
43
47
50
44
45
48
49
54
57
121
2
122
3
123
4
112
113
110
106
109
102
120
104
116
117
115
118
114
107
119
101
103
111
108
105
124
5
125
6
126
7
127
8
77
21
73
65
78
74
72
76
66
69
80
63
68
79
71
61
64
75
62
81
70
67
128
9
129
10
130
11
131
12
132
13
92
97
96
93
88
86
90
95
98
91
89
82
85
94
99
100
84
87
83
133
14
134
15
27
28
25
38
26
34
37
33
36
35
32
31
23
30
24
29
22
135
16
136
17
137
18
138
19
139
20
140
-1
EOF
